c instance by G2
c solution = 011110101000111100101
c Known solution cost is 1013 
p cnf 21 30
w 36 30 70 69 9 8 45 55 44 12 88 79 48 15 61 92 66 54 31 11 90
-14 13 11 0
-5 -15 -20 0
-7 -14 -18 0
1 6 4 0
2 17 -15 0
20 -2 -1 0
-2 21 -5 0
16 -7 18 0
-5 4 -15 0
12 -3 4 0
-14 12 5 0
-4 7 19 0
15 18 -4 0
8 -1 -16 0
-13 18 -10 0
8 3 -5 0
17 -11 16 0
-15 -9 14 0
-3 1 -17 0
18 -8 6 0
4 -13 20 0
3 -5 11 0
-12 -4 -14 0
14 4 -12 0
20 10 -11 0
17 -4 19 0
1 12 -6 0
-3 -11 -16 0
-7 9 -5 0
7 -19 -21 0
